\* Fantasy_Team *\
Maximize
OBJ: 6.26 DEF_ARI + 6.89 DEF_BUF + 3.47 DEF_CAR + 3.48 DEF_CIN + 7 DEF_CLE
 + 4.81 DEF_DEN + 2.04 DEF_DET + 4.51 DEF_GB + 2.73 DEF_HOU + 3.22 DEF_JAX
 + 4.18 DEF_LAC + 8.31 DEF_LAR + 3.09 DEF_LV + 10.09 DEF_MIA + 6.86 DEF_NO
 + 8.22 DEF_NYG + 9.63 DEF_PHI + 11.09 DEF_PIT + 4.91 DEF_SEA + 4.91 DEF_SF
 + 7.34 DEF_TB + 8.14 DEF_WSH + 28.75 QB_Aaron_Rodgers + 10.61 QB_Alex_Smith
 + 19.4 QB_Baker_Mayfield + 19.65 QB_Ben_Roethlisberger + 8.1 QB_Brett_Rypien
 + 6.01 QB_C.J._Beathard + 19.53 QB_Carson_Wentz + 5.74 QB_Chase_Daniel
 + 13.77 QB_Daniel_Jones + 16.79 QB_Derek_Carr + 25.43 QB_Deshaun_Watson
 + 19.03 QB_Drew_Brees + 17.41 QB_Drew_Lock + 15.26 QB_Dwayne_Haskins
 + 23.09 QB_Jake_Luton + 21.07 QB_Jared_Goff + 10.66 QB_Jeff_Driskel
 + 18.74 QB_Joe_Burrow + 23.38 QB_Josh_Allen + 24.17 QB_Justin_Herbert
 + 31.5 QB_Kyler_Murray + 13.74 QB_Matthew_Stafford + 13.51 QB_Nick_Mullens
 + 21.76 QB_Russell_Wilson + 20.86 QB_Ryan_Fitzpatrick
 + 16.85 QB_Teddy_Bridgewater + 18.95 QB_Tom_Brady + 10.97 QB_Tua_Tagovailoa
 + 8.34 QB_Tyrod_Taylor + 19.79 RB_Aaron_Jones + 6.68 RB_Adrian_Peterson
 + 16.74 RB_Alvin_Kamara + 0.63 RB_Andy_Janovich + 4.12 RB_Benny_Snell
 + 6.2 RB_Boston_Scott + 0.44 RB_Bruce_Miller + 4.84 RB_Cam_Akers
 + 13.29 RB_Chase_Edmonds + 1.92 RB_Corey_Clement + 1.07 RB_Cullen_Gillaspia
 + 11.21 RB_D'Andre_Swift + 2.84 RB_D'Ernest_Johnson
 + 9.7 RB_Darrell_Henderson + 9.72 RB_David_Johnson
 + 1.19 RB_DeAndre_Washington + 7.98 RB_DeeJay_Dallas
 + 7.26 RB_Devin_Singletary + 5.53 RB_Devonta_Freeman
 + 5.38 RB_Devontae_Booker + 4.11 RB_Dion_Lewis + 3.63 RB_Dontrell_Hilliard
 + 6.44 RB_Duke_Johnson + 0.71 RB_Dwayne_Washington + 0.88 RB_Elijhaa_Penny
 + 4.61 RB_Gabe_Nabers + 9.67 RB_Giovani_Bernard + 10.25 RB_J.D._McKissic
 + 3.84 RB_JaMycal_Hasty + 3.05 RB_Jalen_Richard + 13.15 RB_James_Conner
 + 16.87 RB_James_Robinson + 0.74 RB_Jason_Huntley + 0.45 RB_Jaylen_Samuels
 + 11.96 RB_Jeff_Wilson + 6.75 RB_Jerick_McKinnon + 6.15 RB_Jordan_Howard
 + 12.04 RB_Josh_Jacobs + 7.69 RB_Joshua_Kelley + 10.36 RB_Justin_Jackson
 + 18.11 RB_Kareem_Hunt + 4.85 RB_Ke'Shawn_Vaughn + 11.22 RB_Kenyan_Drake
 + 6.33 RB_Kerryon_Johnson + 5.34 RB_Latavius_Murray + 2.42 RB_LeSean_McCoy
 + 10.77 RB_Leonard_Fournette + 0.4 RB_Lynn_Bowden + 8.23 RB_Malcolm_Brown
 + 2.81 RB_Matt_Breida + 12.43 RB_Melvin_Gordon + 0.68 RB_Michael_Burton
 + 8.16 RB_Mike_Davis + 12.46 RB_Miles_Sanders + 11.73 RB_Myles_Gaskin
 + 19.04 RB_Nick_Chubb + 1.73 RB_Patrick_Laird + 4.57 RB_Peyton_Barber
 + 9.64 RB_Phillip_Lindsay + 10.87 RB_Raheem_Mostert + 5.61 RB_Reggie_Bonnafon
 + 10.54 RB_Ronald_Jones + 3.05 RB_Royce_Freeman + 3.76 RB_Salvon_Ahmed
 + 3.42 RB_Samaje_Perine + 4.77 RB_T.J._Yeldon + 2.62 RB_Travis_Homer
 + 0.86 RB_Trenton_Cannon + 7.25 RB_Troymaine_Pope + 1.26 RB_Ty_Montgomery
 + 4.59 RB_Tyler_Ervin + 10.85 RB_Wayne_Gallman + 9.62 RB_Zack_Moss
 + 2.41 TE_Adam_Shaheen + 4.4 TE_Adam_Trautman + 7.02 TE_Austin_Hooper
 + 2.95 TE_Cameron_Brate + 0.87 TE_Cethan_Carter + 1.18 TE_Chris_Manhertz
 + 5.71 TE_Dallas_Goedert + 3.82 TE_Dan_Arnold + 3.19 TE_Darrell_Daniels
 + 6.51 TE_Darren_Fells + 10.26 TE_Darren_Waller + 6.06 TE_David_Njoku
 + 2.55 TE_Dawson_Knox + 4.01 TE_Donald_Parham + 3.36 TE_Drew_Sample
 + 3.17 TE_Durham_Smythe + 8.99 TE_Eric_Ebron + 7.38 TE_Evan_Engram
 + 2.45 TE_Foster_Moreau + 12.37 TE_George_Kittle + 8.09 TE_Gerald_Everett
 + 2.57 TE_Greg_Olsen + 7.47 TE_Harrison_Bryant + 6.07 TE_Hunter_Henry
 + 2.36 TE_Ian_Thomas + 0.68 TE_Isaac_Nauta + 4.11 TE_Jace_Sternberger
 + 3.3 TE_Jacob_Hollister + 0.5 TE_Jake_Butt + 2.29 TE_James_O'Shaughnessy
 + 8.31 TE_Jared_Cook + 2.1 TE_Jason_Witten + 0.82 TE_Jeremy_Sprinkle
 + 2.55 TE_Jesse_James + 5.3 TE_Johnny_Mundt + 5.9 TE_Jordan_Akins
 + 5.43 TE_Jordan_Reed + 2.32 TE_Josh_Hill + 1.4 TE_Kaden_Smith
 + 6.47 TE_Lee_Smith + 1.03 TE_Levine_Toilolo + 8.11 TE_Logan_Thomas
 + 4.18 TE_Marcedes_Lewis + 4.28 TE_Maxx_Williams + 6.02 TE_Mike_Gesicki
 + 1.63 TE_Nick_Vannett + 8.28 TE_Noah_Fant + 7.27 TE_O.J._Howard
 + 1.22 TE_Pharaoh_Brown + 3.54 TE_Reggie_Gilliam + 7.27 TE_Richard_Rodgers
 + 7.03 TE_Rob_Gronkowski + 10.4 TE_Robert_Tonyan + 6.84 TE_Ross_Dwelley
 + 9.31 TE_T.J._Hockenson + 0.85 TE_Tanner_Hudson
 + 0.61 TE_Temarrick_Hemingway + 5.22 TE_Tyler_Eifert + 7.1 TE_Tyler_Higbee
 + 2.48 TE_Will_Dissly + 6.04 WR_A.J._Green + 0.96 WR_Alex_Erickson
 + 0.39 WR_Andre_Roberts + 3.76 WR_Andy_Isabella + 4.18 WR_Antonio_Brown
 + 3.77 WR_Auden_Tate + 5.59 WR_Austin_Mack + 12.42 WR_Brandin_Cooks
 + 14.57 WR_Brandon_Aiyuk + 2 WR_Brandon_Zylstra + 3.98 WR_Bryan_Edwards
 + 1.67 WR_C.J._Board + 7.51 WR_Cam_Sims + 12.2 WR_Chase_Claypool
 + 6.06 WR_Chris_Conley + 10.76 WR_Chris_Godwin + 14.03 WR_Christian_Kirk
 + 9.15 WR_Cole_Beasley + 2.43 WR_Collin_Johnson + 14.01 WR_Cooper_Kupp
 + 12.89 WR_Curtis_Samuel + 16.54 WR_D.J._Chark + 10.53 WR_D.J._Moore
 + 14.14 WR_DK_Metcalf + 4.87 WR_DaeSean_Hamilton + 6.14 WR_Danny_Amendola
 - 1.17 WR_Dante_Pettis + 6.89 WR_Darius_Slayton + 1.19 WR_Darrius_Shepherd
 + 30.25 WR_Davante_Adams + 7.32 WR_David_Moore - 0.44 WR_DeAndre_Carter
 + 13.45 WR_DeAndre_Hopkins + 9.47 WR_DeVante_Parker + 5.05 WR_Deonte_Harris
 + 10.94 WR_Diontae_Johnson + WR_Diontae_Spencer
 + 9.68 WR_Donovan_Peoples_Jones + 10.92 WR_Emmanuel_Sanders
 + 1.25 WR_Equanimeous_St._Brown + 1.44 WR_Freddie_Swain
 + 5.8 WR_Gabriel_Davis + 6.87 WR_Golden_Tate + 7.54 WR_Greg_Ward
 + 4.9 WR_Henry_Ruggs_III + 7.61 WR_Hunter_Renfrow + 4.41 WR_Isaiah_McKenzie
 + 3.56 WR_Isaiah_Wright + 1.41 WR_J.J._Arcega_Whiteside + 5.7 WR_Jakeem_Grant
 + 5.66 WR_Jalen_Guyton + 8.23 WR_Jalen_Reagor + 5.39 WR_James_Washington
 + 8.38 WR_Jarvis_Landry + 10.03 WR_Jerry_Jeudy + 3.06 WR_Joe_Reed
 + 7.76 WR_John_Brown + 3.14 WR_John_Hightower + 9.09 WR_Josh_Reynolds
 + 13.15 WR_JuJu_Smith_Schuster + 3.91 WR_Justin_Watson + 7.66 WR_K.J._Hamler
 - 0.3 WR_K.J._Hill + 2.11 WR_KeeSean_Johnson + 7.2 WR_Keelan_Cole
 + 14.74 WR_Keenan_Allen + 0.11 WR_Keke_Coutee + 7.15 WR_Kendrick_Bourne
 + 4.56 WR_Kenny_Stills + 2.49 WR_KhaDarel_Hodge + 6.1 WR_Larry_Fitzgerald
 + 7.69 WR_Mack_Hollins + 0.51 WR_Malcolm_Perry + 3.65 WR_Malik_Taylor
 + 5.52 WR_Marquez_Callaway + 8.68 WR_Marquez_Valdes_Scantling
 + 4.12 WR_Marvin_Hall + 8.35 WR_Marvin_Jones + 5.82 WR_Michael_Thomas
 + 9.71 WR_Mike_Evans + 4.11 WR_Mike_Thomas + 9.14 WR_Mike_Williams
 + 9.34 WR_Nelson_Agholor + 0.76 WR_Pharoh_Cooper + 4.37 WR_Quintez_Cephus
 + 9.28 WR_Randall_Cobb + 8.34 WR_Rashard_Higgins + 31.83 WR_Richie_James
 + 2.53 WR_River_Cracraft + 10.86 WR_Robby_Anderson + 16.48 WR_Robert_Woods
 + 13.5 WR_Stefon_Diggs + 9.11 WR_Sterling_Shepard + 3.42 WR_Steven_Sims
 + 12.18 WR_Tee_Higgins + 9.55 WR_Tim_Patrick + 15.87 WR_Travis_Fulgham
 + 7.3 WR_Tre'Quan_Smith + 1.06 WR_Trent_Sherfield + 2.46 WR_Trent_Taylor
 + 14.44 WR_Tyler_Boyd + 4.92 WR_Tyler_Johnson + 12.95 WR_Tyler_Lockett
 + 0.28 WR_Tyrie_Cleveland + 4 WR_Tyron_Johnson + 2.96 WR_Van_Jefferson
 + 15.58 WR_Will_Fuller + 4.47 WR_Zay_Jones
Subject To
_C1: 3600 DEF_ARI + 4100 DEF_BUF + 3000 DEF_CAR + 3400 DEF_CIN + 4400 DEF_CLE
 + 4300 DEF_DEN + 3900 DEF_DET + 4800 DEF_GB + 3500 DEF_HOU + 3100 DEF_JAX
 + 4100 DEF_LAC + 4000 DEF_LAR + 3500 DEF_LV + 4700 DEF_MIA + 4500 DEF_NO
 + 3900 DEF_NYG + 4600 DEF_PHI + 5000 DEF_PIT + 3700 DEF_SEA + 3700 DEF_SF
 + 4200 DEF_TB + 3800 DEF_WSH + 8400 QB_Aaron_Rodgers + 6500 QB_Alex_Smith
 + 7000 QB_Baker_Mayfield + 7400 QB_Ben_Roethlisberger + 6100 QB_Brett_Rypien
 + 6300 QB_C.J._Beathard + 7500 QB_Carson_Wentz + 6000 QB_Chase_Daniel
 + 6700 QB_Daniel_Jones + 6900 QB_Derek_Carr + 8300 QB_Deshaun_Watson
 + 7600 QB_Drew_Brees + 7100 QB_Drew_Lock + 6500 QB_Dwayne_Haskins
 + 6700 QB_Jake_Luton + 7400 QB_Jared_Goff + 6100 QB_Jeff_Driskel
 + 7200 QB_Joe_Burrow + 8700 QB_Josh_Allen + 8000 QB_Justin_Herbert
 + 8800 QB_Kyler_Murray + 7300 QB_Matthew_Stafford + 6600 QB_Nick_Mullens
 + 8900 QB_Russell_Wilson + 6200 QB_Ryan_Fitzpatrick
 + 7000 QB_Teddy_Bridgewater + 7800 QB_Tom_Brady + 6800 QB_Tua_Tagovailoa
 + 6400 QB_Tyrod_Taylor + 8800 RB_Aaron_Jones + 5200 RB_Adrian_Peterson
 + 9000 RB_Alvin_Kamara + 4500 RB_Andy_Janovich + 4900 RB_Benny_Snell
 + 5900 RB_Boston_Scott + 4500 RB_Bruce_Miller + 5100 RB_Cam_Akers
 + 7100 RB_Chase_Edmonds + 5000 RB_Corey_Clement + 4500 RB_Cullen_Gillaspia
 + 6000 RB_D'Andre_Swift + 4800 RB_D'Ernest_Johnson
 + 5800 RB_Darrell_Henderson + 6300 RB_David_Johnson
 + 4500 RB_DeAndre_Washington + 5600 RB_DeeJay_Dallas
 + 5600 RB_Devin_Singletary + 5400 RB_Devonta_Freeman
 + 5200 RB_Devontae_Booker + 4600 RB_Dion_Lewis + 4600 RB_Dontrell_Hilliard
 + 5800 RB_Duke_Johnson + 4500 RB_Dwayne_Washington + 4500 RB_Elijhaa_Penny
 + 4700 RB_Gabe_Nabers + 6200 RB_Giovani_Bernard + 5300 RB_J.D._McKissic
 + 5100 RB_JaMycal_Hasty + 4500 RB_Jalen_Richard + 7600 RB_James_Conner
 + 7300 RB_James_Robinson + 4500 RB_Jason_Huntley + 4500 RB_Jaylen_Samuels
 + 5700 RB_Jeff_Wilson + 5500 RB_Jerick_McKinnon + 5200 RB_Jordan_Howard
 + 7500 RB_Josh_Jacobs + 5200 RB_Joshua_Kelley + 5500 RB_Justin_Jackson
 + 7500 RB_Kareem_Hunt + 4700 RB_Ke'Shawn_Vaughn + 6000 RB_Kenyan_Drake
 + 5000 RB_Kerryon_Johnson + 5000 RB_Latavius_Murray + 4600 RB_LeSean_McCoy
 + 6400 RB_Leonard_Fournette + 4500 RB_Lynn_Bowden + 5500 RB_Malcolm_Brown
 + 4600 RB_Matt_Breida + 6600 RB_Melvin_Gordon + 4500 RB_Michael_Burton
 + 5400 RB_Mike_Davis + 7700 RB_Miles_Sanders + 5700 RB_Myles_Gaskin
 + 8200 RB_Nick_Chubb + 4700 RB_Patrick_Laird + 4500 RB_Peyton_Barber
 + 5900 RB_Phillip_Lindsay + 6800 RB_Raheem_Mostert + 4600 RB_Reggie_Bonnafon
 + 6400 RB_Ronald_Jones + 4800 RB_Royce_Freeman + 4900 RB_Salvon_Ahmed
 + 4700 RB_Samaje_Perine + 4500 RB_T.J._Yeldon + 5300 RB_Travis_Homer
 + 4700 RB_Trenton_Cannon + 4500 RB_Troymaine_Pope + 4600 RB_Ty_Montgomery
 + 4900 RB_Tyler_Ervin + 5700 RB_Wayne_Gallman + 5800 RB_Zack_Moss
 + 4200 TE_Adam_Shaheen + 4200 TE_Adam_Trautman + 5100 TE_Austin_Hooper
 + 4600 TE_Cameron_Brate + 4000 TE_Cethan_Carter + 4000 TE_Chris_Manhertz
 + 5800 TE_Dallas_Goedert + 4300 TE_Dan_Arnold + 4500 TE_Darrell_Daniels
 + 5000 TE_Darren_Fells + 7000 TE_Darren_Waller + 4800 TE_David_Njoku
 + 4500 TE_Dawson_Knox + 4400 TE_Donald_Parham + 4400 TE_Drew_Sample
 + 4300 TE_Durham_Smythe + 5400 TE_Eric_Ebron + 5600 TE_Evan_Engram
 + 4100 TE_Foster_Moreau + 6000 TE_George_Kittle + 4500 TE_Gerald_Everett
 + 4600 TE_Greg_Olsen + 4800 TE_Harrison_Bryant + 5500 TE_Hunter_Henry
 + 4400 TE_Ian_Thomas + 4000 TE_Isaac_Nauta + 4400 TE_Jace_Sternberger
 + 4700 TE_Jacob_Hollister + 4100 TE_Jake_Butt + 4100 TE_James_O'Shaughnessy
 + 6000 TE_Jared_Cook + 4300 TE_Jason_Witten + 4000 TE_Jeremy_Sprinkle
 + 4300 TE_Jesse_James + 4000 TE_Johnny_Mundt + 4900 TE_Jordan_Akins
 + 5000 TE_Jordan_Reed + 4200 TE_Josh_Hill + 4100 TE_Kaden_Smith
 + 4100 TE_Lee_Smith + 4000 TE_Levine_Toilolo + 4900 TE_Logan_Thomas
 + 4300 TE_Marcedes_Lewis + 4000 TE_Maxx_Williams + 5300 TE_Mike_Gesicki
 + 4400 TE_Nick_Vannett + 5700 TE_Noah_Fant + 4000 TE_O.J._Howard
 + 4100 TE_Pharaoh_Brown + 4200 TE_Reggie_Gilliam + 4900 TE_Richard_Rodgers
 + 6100 TE_Rob_Gronkowski + 5700 TE_Robert_Tonyan + 5000 TE_Ross_Dwelley
 + 4000 TE_Stephen_Carlson + 6200 TE_T.J._Hockenson + 4000 TE_Tanner_Hudson
 + 4000 TE_Temarrick_Hemingway + 4000 TE_Tyler_Davis + 4600 TE_Tyler_Eifert
 + 5200 TE_Tyler_Higbee + 4500 TE_Will_Dissly + 5600 WR_A.J._Green
 + 4600 WR_Alex_Erickson + 4500 WR_Andre_Roberts + 4800 WR_Andy_Isabella
 + 6500 WR_Antonio_Brown + 4600 WR_Auden_Tate + 4900 WR_Austin_Mack
 + 6300 WR_Brandin_Cooks + 6500 WR_Brandon_Aiyuk + 4500 WR_Brandon_Zylstra
 + 4600 WR_Bryan_Edwards + 4500 WR_C.J._Board + 4900 WR_Cam_Sims
 + 6100 WR_Chase_Claypool + 4800 WR_Chris_Conley + 7500 WR_Chris_Godwin
 + 6300 WR_Christian_Kirk + 5400 WR_Cole_Beasley + 4600 WR_Collin_Johnson
 + 7700 WR_Cooper_Kupp + 5700 WR_Curtis_Samuel + 6600 WR_D.J._Chark
 + 6900 WR_D.J._Moore + 8300 WR_DK_Metcalf + 4700 WR_DaeSean_Hamilton
 + 5200 WR_Danny_Amendola + 4500 WR_Dante_Pettis + 5900 WR_Darius_Slayton
 + 4600 WR_Darrius_Shepherd + 9500 WR_Davante_Adams + 5300 WR_David_Moore
 + 4500 WR_DeAndre_Carter + 8600 WR_DeAndre_Hopkins + 6000 WR_DeVante_Parker
 + 4900 WR_Deonte_Harris + 5700 WR_Diontae_Johnson + 4500 WR_Diontae_Spencer
 + 5200 WR_Donovan_Peoples_Jones + 5800 WR_Emmanuel_Sanders
 + 4500 WR_Equanimeous_St._Brown + 4700 WR_Freddie_Swain
 + 5000 WR_Gabriel_Davis + 5300 WR_Golden_Tate + 5100 WR_Greg_Ward
 + 5600 WR_Henry_Ruggs_III + 4900 WR_Hunter_Renfrow + 4700 WR_Isaiah_McKenzie
 + 4500 WR_Isaiah_Wright + 4600 WR_J.J._Arcega_Whiteside
 + 4600 WR_Jakeem_Grant + 4900 WR_Jalen_Guyton + 5600 WR_Jalen_Reagor
 + 5100 WR_James_Washington + 6000 WR_Jarvis_Landry + 5800 WR_Jerry_Jeudy
 + 4700 WR_Joe_Reed + 5600 WR_John_Brown + 4900 WR_John_Hightower
 + 5000 WR_Josh_Reynolds + 6400 WR_JuJu_Smith_Schuster + 4600 WR_Justin_Watson
 + 5200 WR_K.J._Hamler + 4500 WR_K.J._Hill + 4500 WR_KeeSean_Johnson
 + 5100 WR_Keelan_Cole + 7800 WR_Keenan_Allen + 4500 WR_Keke_Coutee
 + 5400 WR_Kendrick_Bourne + 4600 WR_Kenny_Stills + 4500 WR_KhaDarel_Hodge
 + 5000 WR_Larry_Fitzgerald + 4800 WR_Mack_Hollins + 4500 WR_Malcolm_Perry
 + 4600 WR_Malik_Taylor + 4700 WR_Marquez_Callaway
 + 5500 WR_Marquez_Valdes_Scantling + 4600 WR_Marvin_Hall
 + 6200 WR_Marvin_Jones + 8500 WR_Michael_Thomas + 7300 WR_Mike_Evans
 + 4500 WR_Mike_Thomas + 5900 WR_Mike_Williams + 5100 WR_Nelson_Agholor
 + 4500 WR_Nsimba_Webster + 4500 WR_Pharoh_Cooper + 4600 WR_Quintez_Cephus
 + 5100 WR_Randall_Cobb + 5500 WR_Rashard_Higgins + 5400 WR_Richie_James
 + 4500 WR_River_Cracraft + 6400 WR_Robby_Anderson + 7200 WR_Robert_Woods
 + 7900 WR_Stefon_Diggs + 5500 WR_Sterling_Shepard + 4600 WR_Steven_Sims
 + 6100 WR_Tee_Higgins + 5500 WR_Tim_Patrick + 6800 WR_Travis_Fulgham
 + 5000 WR_Tre'Quan_Smith + 4500 WR_Trent_Sherfield + 4800 WR_Trent_Taylor
 + 6700 WR_Tyler_Boyd + 5000 WR_Tyler_Johnson + 7400 WR_Tyler_Lockett
 + 4500 WR_Tyrie_Cleveland + 4700 WR_Tyron_Johnson + 4600 WR_Van_Jefferson
 + 7100 WR_Will_Fuller + 4700 WR_Zay_Jones <= 46000
_C10: RB_Aaron_Jones + RB_Adrian_Peterson + RB_Alvin_Kamara + RB_Benny_Snell
 + RB_Boston_Scott + RB_Cam_Akers + RB_Chase_Edmonds + RB_Corey_Clement
 + RB_D'Andre_Swift + RB_D'Ernest_Johnson + RB_Darrell_Henderson
 + RB_David_Johnson + RB_DeeJay_Dallas + RB_Devin_Singletary
 + RB_Devonta_Freeman + RB_Devontae_Booker + RB_Dion_Lewis
 + RB_Dontrell_Hilliard + RB_Duke_Johnson + RB_Gabe_Nabers
 + RB_Giovani_Bernard + RB_J.D._McKissic + RB_JaMycal_Hasty + RB_Jalen_Richard
 + RB_James_Conner + RB_James_Robinson + RB_Jeff_Wilson + RB_Jerick_McKinnon
 + RB_Jordan_Howard + RB_Josh_Jacobs + RB_Joshua_Kelley + RB_Justin_Jackson
 + RB_Kareem_Hunt + RB_Ke'Shawn_Vaughn + RB_Kenyan_Drake + RB_Kerryon_Johnson
 + RB_Latavius_Murray + RB_LeSean_McCoy + RB_Leonard_Fournette
 + RB_Malcolm_Brown + RB_Matt_Breida + RB_Melvin_Gordon + RB_Mike_Davis
 + RB_Miles_Sanders + RB_Myles_Gaskin + RB_Nick_Chubb + RB_Patrick_Laird
 + RB_Peyton_Barber + RB_Phillip_Lindsay + RB_Raheem_Mostert
 + RB_Reggie_Bonnafon + RB_Ronald_Jones + RB_Royce_Freeman + RB_Salvon_Ahmed
 + RB_Samaje_Perine + RB_T.J._Yeldon + RB_Travis_Homer + RB_Troymaine_Pope
 + RB_Ty_Montgomery + RB_Tyler_Ervin + RB_Wayne_Gallman + RB_Zack_Moss
 + TE_Adam_Shaheen + TE_Adam_Trautman + TE_Austin_Hooper + TE_Cameron_Brate
 + TE_Cethan_Carter + TE_Chris_Manhertz + TE_Dallas_Goedert + TE_Dan_Arnold
 + TE_Darrell_Daniels + TE_Darren_Fells + TE_Darren_Waller + TE_David_Njoku
 + TE_Dawson_Knox + TE_Donald_Parham + TE_Drew_Sample + TE_Durham_Smythe
 + TE_Eric_Ebron + TE_Evan_Engram + TE_Foster_Moreau + TE_George_Kittle
 + TE_Gerald_Everett + TE_Greg_Olsen + TE_Harrison_Bryant + TE_Hunter_Henry
 + TE_Ian_Thomas + TE_Isaac_Nauta + TE_Jace_Sternberger + TE_Jacob_Hollister
 + TE_Jake_Butt + TE_James_O'Shaughnessy + TE_Jared_Cook + TE_Jason_Witten
 + TE_Jeremy_Sprinkle + TE_Jesse_James + TE_Johnny_Mundt + TE_Jordan_Akins
 + TE_Jordan_Reed + TE_Josh_Hill + TE_Kaden_Smith + TE_Lee_Smith
 + TE_Levine_Toilolo + TE_Logan_Thomas + TE_Marcedes_Lewis + TE_Maxx_Williams
 + TE_Mike_Gesicki + TE_Nick_Vannett + TE_Noah_Fant + TE_O.J._Howard
 + TE_Pharaoh_Brown + TE_Reggie_Gilliam + TE_Richard_Rodgers
 + TE_Rob_Gronkowski + TE_Robert_Tonyan + TE_Ross_Dwelley + TE_Stephen_Carlson
 + TE_T.J._Hockenson + TE_Tanner_Hudson + TE_Temarrick_Hemingway
 + TE_Tyler_Davis + TE_Tyler_Eifert + TE_Tyler_Higbee + TE_Will_Dissly
 + WR_A.J._Green + WR_Austin_Mack + WR_Brandin_Cooks + WR_Brandon_Aiyuk
 + WR_Cam_Sims + WR_Chase_Claypool + WR_Chris_Conley + WR_Chris_Godwin
 + WR_Christian_Kirk + WR_Cole_Beasley + WR_Cooper_Kupp + WR_Curtis_Samuel
 + WR_D.J._Chark + WR_D.J._Moore + WR_DK_Metcalf + WR_Danny_Amendola
 + WR_Darius_Slayton + WR_Davante_Adams + WR_David_Moore + WR_DeAndre_Hopkins
 + WR_DeVante_Parker + WR_Diontae_Johnson + WR_Donovan_Peoples_Jones
 + WR_Emmanuel_Sanders + WR_Gabriel_Davis + WR_Golden_Tate + WR_Greg_Ward
 + WR_Hunter_Renfrow + WR_Jakeem_Grant + WR_Jalen_Guyton + WR_Jalen_Reagor
 + WR_Jarvis_Landry + WR_Jerry_Jeudy + WR_John_Brown + WR_Josh_Reynolds
 + WR_JuJu_Smith_Schuster + WR_K.J._Hamler + WR_Keelan_Cole + WR_Keenan_Allen
 + WR_Kendrick_Bourne + WR_Larry_Fitzgerald + WR_Mack_Hollins
 + WR_Marquez_Valdes_Scantling + WR_Marvin_Jones + WR_Michael_Thomas
 + WR_Mike_Evans + WR_Mike_Williams + WR_Nelson_Agholor + WR_Randall_Cobb
 + WR_Rashard_Higgins + WR_Richie_James + WR_Robby_Anderson + WR_Robert_Woods
 + WR_Stefon_Diggs + WR_Sterling_Shepard + WR_Tee_Higgins + WR_Tim_Patrick
 + WR_Travis_Fulgham + WR_Tre'Quan_Smith + WR_Tyler_Boyd + WR_Tyler_Lockett
 + WR_Will_Fuller = 6
_C2: QB_Aaron_Rodgers + QB_Alex_Smith + QB_Baker_Mayfield
 + QB_Ben_Roethlisberger + QB_Brett_Rypien + QB_C.J._Beathard
 + QB_Carson_Wentz + QB_Chase_Daniel + QB_Daniel_Jones + QB_Derek_Carr
 + QB_Deshaun_Watson + QB_Drew_Brees + QB_Drew_Lock + QB_Dwayne_Haskins
 + QB_Jake_Luton + QB_Jared_Goff + QB_Jeff_Driskel + QB_Joe_Burrow
 + QB_Josh_Allen + QB_Justin_Herbert + QB_Kyler_Murray + QB_Matthew_Stafford
 + QB_Nick_Mullens + QB_Russell_Wilson + QB_Ryan_Fitzpatrick
 + QB_Teddy_Bridgewater + QB_Tom_Brady + QB_Tua_Tagovailoa + QB_Tyrod_Taylor
 = 0
_C3: DEF_ARI + DEF_BUF + DEF_CAR + DEF_CIN + DEF_CLE + DEF_DEN + DEF_DET
 + DEF_GB + DEF_HOU + DEF_JAX + DEF_LAC + DEF_LAR + DEF_LV + DEF_MIA + DEF_NO
 + DEF_NYG + DEF_PHI + DEF_PIT + DEF_SEA + DEF_SF + DEF_TB + DEF_WSH = 1
_C4: RB_Aaron_Jones + RB_Adrian_Peterson + RB_Alvin_Kamara + RB_Benny_Snell
 + RB_Boston_Scott + RB_Cam_Akers + RB_Chase_Edmonds + RB_Corey_Clement
 + RB_D'Andre_Swift + RB_D'Ernest_Johnson + RB_Darrell_Henderson
 + RB_David_Johnson + RB_DeeJay_Dallas + RB_Devin_Singletary
 + RB_Devonta_Freeman + RB_Devontae_Booker + RB_Dion_Lewis
 + RB_Dontrell_Hilliard + RB_Duke_Johnson + RB_Gabe_Nabers
 + RB_Giovani_Bernard + RB_J.D._McKissic + RB_JaMycal_Hasty + RB_Jalen_Richard
 + RB_James_Conner + RB_James_Robinson + RB_Jeff_Wilson + RB_Jerick_McKinnon
 + RB_Jordan_Howard + RB_Josh_Jacobs + RB_Joshua_Kelley + RB_Justin_Jackson
 + RB_Kareem_Hunt + RB_Ke'Shawn_Vaughn + RB_Kenyan_Drake + RB_Kerryon_Johnson
 + RB_Latavius_Murray + RB_LeSean_McCoy + RB_Leonard_Fournette
 + RB_Malcolm_Brown + RB_Matt_Breida + RB_Melvin_Gordon + RB_Mike_Davis
 + RB_Miles_Sanders + RB_Myles_Gaskin + RB_Nick_Chubb + RB_Patrick_Laird
 + RB_Peyton_Barber + RB_Phillip_Lindsay + RB_Raheem_Mostert
 + RB_Reggie_Bonnafon + RB_Ronald_Jones + RB_Royce_Freeman + RB_Salvon_Ahmed
 + RB_Samaje_Perine + RB_T.J._Yeldon + RB_Travis_Homer + RB_Troymaine_Pope
 + RB_Ty_Montgomery + RB_Tyler_Ervin + RB_Wayne_Gallman + RB_Zack_Moss >= 1
_C5: RB_Aaron_Jones + RB_Adrian_Peterson + RB_Alvin_Kamara + RB_Benny_Snell
 + RB_Boston_Scott + RB_Cam_Akers + RB_Chase_Edmonds + RB_Corey_Clement
 + RB_D'Andre_Swift + RB_D'Ernest_Johnson + RB_Darrell_Henderson
 + RB_David_Johnson + RB_DeeJay_Dallas + RB_Devin_Singletary
 + RB_Devonta_Freeman + RB_Devontae_Booker + RB_Dion_Lewis
 + RB_Dontrell_Hilliard + RB_Duke_Johnson + RB_Gabe_Nabers
 + RB_Giovani_Bernard + RB_J.D._McKissic + RB_JaMycal_Hasty + RB_Jalen_Richard
 + RB_James_Conner + RB_James_Robinson + RB_Jeff_Wilson + RB_Jerick_McKinnon
 + RB_Jordan_Howard + RB_Josh_Jacobs + RB_Joshua_Kelley + RB_Justin_Jackson
 + RB_Kareem_Hunt + RB_Ke'Shawn_Vaughn + RB_Kenyan_Drake + RB_Kerryon_Johnson
 + RB_Latavius_Murray + RB_LeSean_McCoy + RB_Leonard_Fournette
 + RB_Malcolm_Brown + RB_Matt_Breida + RB_Melvin_Gordon + RB_Mike_Davis
 + RB_Miles_Sanders + RB_Myles_Gaskin + RB_Nick_Chubb + RB_Patrick_Laird
 + RB_Peyton_Barber + RB_Phillip_Lindsay + RB_Raheem_Mostert
 + RB_Reggie_Bonnafon + RB_Ronald_Jones + RB_Royce_Freeman + RB_Salvon_Ahmed
 + RB_Samaje_Perine + RB_T.J._Yeldon + RB_Travis_Homer + RB_Troymaine_Pope
 + RB_Ty_Montgomery + RB_Tyler_Ervin + RB_Wayne_Gallman + RB_Zack_Moss <= 2
_C6: WR_A.J._Green + WR_Austin_Mack + WR_Brandin_Cooks + WR_Brandon_Aiyuk
 + WR_Cam_Sims + WR_Chase_Claypool + WR_Chris_Conley + WR_Chris_Godwin
 + WR_Christian_Kirk + WR_Cole_Beasley + WR_Cooper_Kupp + WR_Curtis_Samuel
 + WR_D.J._Chark + WR_D.J._Moore + WR_DK_Metcalf + WR_Danny_Amendola
 + WR_Darius_Slayton + WR_Davante_Adams + WR_David_Moore + WR_DeAndre_Hopkins
 + WR_DeVante_Parker + WR_Diontae_Johnson + WR_Donovan_Peoples_Jones
 + WR_Emmanuel_Sanders + WR_Gabriel_Davis + WR_Golden_Tate + WR_Greg_Ward
 + WR_Hunter_Renfrow + WR_Jakeem_Grant + WR_Jalen_Guyton + WR_Jalen_Reagor
 + WR_Jarvis_Landry + WR_Jerry_Jeudy + WR_John_Brown + WR_Josh_Reynolds
 + WR_JuJu_Smith_Schuster + WR_K.J._Hamler + WR_Keelan_Cole + WR_Keenan_Allen
 + WR_Kendrick_Bourne + WR_Larry_Fitzgerald + WR_Mack_Hollins
 + WR_Marquez_Valdes_Scantling + WR_Marvin_Jones + WR_Michael_Thomas
 + WR_Mike_Evans + WR_Mike_Williams + WR_Nelson_Agholor + WR_Randall_Cobb
 + WR_Rashard_Higgins + WR_Richie_James + WR_Robby_Anderson + WR_Robert_Woods
 + WR_Stefon_Diggs + WR_Sterling_Shepard + WR_Tee_Higgins + WR_Tim_Patrick
 + WR_Travis_Fulgham + WR_Tre'Quan_Smith + WR_Tyler_Boyd + WR_Tyler_Lockett
 + WR_Will_Fuller >= 3
_C7: WR_A.J._Green + WR_Austin_Mack + WR_Brandin_Cooks + WR_Brandon_Aiyuk
 + WR_Cam_Sims + WR_Chase_Claypool + WR_Chris_Conley + WR_Chris_Godwin
 + WR_Christian_Kirk + WR_Cole_Beasley + WR_Cooper_Kupp + WR_Curtis_Samuel
 + WR_D.J._Chark + WR_D.J._Moore + WR_DK_Metcalf + WR_Danny_Amendola
 + WR_Darius_Slayton + WR_Davante_Adams + WR_David_Moore + WR_DeAndre_Hopkins
 + WR_DeVante_Parker + WR_Diontae_Johnson + WR_Donovan_Peoples_Jones
 + WR_Emmanuel_Sanders + WR_Gabriel_Davis + WR_Golden_Tate + WR_Greg_Ward
 + WR_Hunter_Renfrow + WR_Jakeem_Grant + WR_Jalen_Guyton + WR_Jalen_Reagor
 + WR_Jarvis_Landry + WR_Jerry_Jeudy + WR_John_Brown + WR_Josh_Reynolds
 + WR_JuJu_Smith_Schuster + WR_K.J._Hamler + WR_Keelan_Cole + WR_Keenan_Allen
 + WR_Kendrick_Bourne + WR_Larry_Fitzgerald + WR_Mack_Hollins
 + WR_Marquez_Valdes_Scantling + WR_Marvin_Jones + WR_Michael_Thomas
 + WR_Mike_Evans + WR_Mike_Williams + WR_Nelson_Agholor + WR_Randall_Cobb
 + WR_Rashard_Higgins + WR_Richie_James + WR_Robby_Anderson + WR_Robert_Woods
 + WR_Stefon_Diggs + WR_Sterling_Shepard + WR_Tee_Higgins + WR_Tim_Patrick
 + WR_Travis_Fulgham + WR_Tre'Quan_Smith + WR_Tyler_Boyd + WR_Tyler_Lockett
 + WR_Will_Fuller <= 4
_C8: TE_Adam_Shaheen + TE_Adam_Trautman + TE_Austin_Hooper + TE_Cameron_Brate
 + TE_Cethan_Carter + TE_Chris_Manhertz + TE_Dallas_Goedert + TE_Dan_Arnold
 + TE_Darrell_Daniels + TE_Darren_Fells + TE_Darren_Waller + TE_David_Njoku
 + TE_Dawson_Knox + TE_Donald_Parham + TE_Drew_Sample + TE_Durham_Smythe
 + TE_Eric_Ebron + TE_Evan_Engram + TE_Foster_Moreau + TE_George_Kittle
 + TE_Gerald_Everett + TE_Greg_Olsen + TE_Harrison_Bryant + TE_Hunter_Henry
 + TE_Ian_Thomas + TE_Isaac_Nauta + TE_Jace_Sternberger + TE_Jacob_Hollister
 + TE_Jake_Butt + TE_James_O'Shaughnessy + TE_Jared_Cook + TE_Jason_Witten
 + TE_Jeremy_Sprinkle + TE_Jesse_James + TE_Johnny_Mundt + TE_Jordan_Akins
 + TE_Jordan_Reed + TE_Josh_Hill + TE_Kaden_Smith + TE_Lee_Smith
 + TE_Levine_Toilolo + TE_Logan_Thomas + TE_Marcedes_Lewis + TE_Maxx_Williams
 + TE_Mike_Gesicki + TE_Nick_Vannett + TE_Noah_Fant + TE_O.J._Howard
 + TE_Pharaoh_Brown + TE_Reggie_Gilliam + TE_Richard_Rodgers
 + TE_Rob_Gronkowski + TE_Robert_Tonyan + TE_Ross_Dwelley + TE_Stephen_Carlson
 + TE_T.J._Hockenson + TE_Tanner_Hudson + TE_Temarrick_Hemingway
 + TE_Tyler_Davis + TE_Tyler_Eifert + TE_Tyler_Higbee + TE_Will_Dissly >= 1
_C9: TE_Adam_Shaheen + TE_Adam_Trautman + TE_Austin_Hooper + TE_Cameron_Brate
 + TE_Cethan_Carter + TE_Chris_Manhertz + TE_Dallas_Goedert + TE_Dan_Arnold
 + TE_Darrell_Daniels + TE_Darren_Fells + TE_Darren_Waller + TE_David_Njoku
 + TE_Dawson_Knox + TE_Donald_Parham + TE_Drew_Sample + TE_Durham_Smythe
 + TE_Eric_Ebron + TE_Evan_Engram + TE_Foster_Moreau + TE_George_Kittle
 + TE_Gerald_Everett + TE_Greg_Olsen + TE_Harrison_Bryant + TE_Hunter_Henry
 + TE_Ian_Thomas + TE_Isaac_Nauta + TE_Jace_Sternberger + TE_Jacob_Hollister
 + TE_Jake_Butt + TE_James_O'Shaughnessy + TE_Jared_Cook + TE_Jason_Witten
 + TE_Jeremy_Sprinkle + TE_Jesse_James + TE_Johnny_Mundt + TE_Jordan_Akins
 + TE_Jordan_Reed + TE_Josh_Hill + TE_Kaden_Smith + TE_Lee_Smith
 + TE_Levine_Toilolo + TE_Logan_Thomas + TE_Marcedes_Lewis + TE_Maxx_Williams
 + TE_Mike_Gesicki + TE_Nick_Vannett + TE_Noah_Fant + TE_O.J._Howard
 + TE_Pharaoh_Brown + TE_Reggie_Gilliam + TE_Richard_Rodgers
 + TE_Rob_Gronkowski + TE_Robert_Tonyan + TE_Ross_Dwelley + TE_Stephen_Carlson
 + TE_T.J._Hockenson + TE_Tanner_Hudson + TE_Temarrick_Hemingway
 + TE_Tyler_Davis + TE_Tyler_Eifert + TE_Tyler_Higbee + TE_Will_Dissly <= 2
Binaries
DEF_ARI
DEF_BUF
DEF_CAR
DEF_CIN
DEF_CLE
DEF_DEN
DEF_DET
DEF_GB
DEF_HOU
DEF_JAX
DEF_LAC
DEF_LAR
DEF_LV
DEF_MIA
DEF_NO
DEF_NYG
DEF_PHI
DEF_PIT
DEF_SEA
DEF_SF
DEF_TB
DEF_WSH
QB_Aaron_Rodgers
QB_Alex_Smith
QB_Baker_Mayfield
QB_Ben_Roethlisberger
QB_Brett_Rypien
QB_C.J._Beathard
QB_Carson_Wentz
QB_Chase_Daniel
QB_Daniel_Jones
QB_Derek_Carr
QB_Deshaun_Watson
QB_Drew_Brees
QB_Drew_Lock
QB_Dwayne_Haskins
QB_Jake_Luton
QB_Jared_Goff
QB_Jeff_Driskel
QB_Joe_Burrow
QB_Josh_Allen
QB_Justin_Herbert
QB_Kyler_Murray
QB_Matthew_Stafford
QB_Nick_Mullens
QB_Russell_Wilson
QB_Ryan_Fitzpatrick
QB_Teddy_Bridgewater
QB_Tom_Brady
QB_Tua_Tagovailoa
QB_Tyrod_Taylor
RB_Aaron_Jones
RB_Adrian_Peterson
RB_Alvin_Kamara
RB_Andy_Janovich
RB_Benny_Snell
RB_Boston_Scott
RB_Bruce_Miller
RB_Cam_Akers
RB_Chase_Edmonds
RB_Corey_Clement
RB_Cullen_Gillaspia
RB_D'Andre_Swift
RB_D'Ernest_Johnson
RB_Darrell_Henderson
RB_David_Johnson
RB_DeAndre_Washington
RB_DeeJay_Dallas
RB_Devin_Singletary
RB_Devonta_Freeman
RB_Devontae_Booker
RB_Dion_Lewis
RB_Dontrell_Hilliard
RB_Duke_Johnson
RB_Dwayne_Washington
RB_Elijhaa_Penny
RB_Gabe_Nabers
RB_Giovani_Bernard
RB_J.D._McKissic
RB_JaMycal_Hasty
RB_Jalen_Richard
RB_James_Conner
RB_James_Robinson
RB_Jason_Huntley
RB_Jaylen_Samuels
RB_Jeff_Wilson
RB_Jerick_McKinnon
RB_Jordan_Howard
RB_Josh_Jacobs
RB_Joshua_Kelley
RB_Justin_Jackson
RB_Kareem_Hunt
RB_Ke'Shawn_Vaughn
RB_Kenyan_Drake
RB_Kerryon_Johnson
RB_Latavius_Murray
RB_LeSean_McCoy
RB_Leonard_Fournette
RB_Lynn_Bowden
RB_Malcolm_Brown
RB_Matt_Breida
RB_Melvin_Gordon
RB_Michael_Burton
RB_Mike_Davis
RB_Miles_Sanders
RB_Myles_Gaskin
RB_Nick_Chubb
RB_Patrick_Laird
RB_Peyton_Barber
RB_Phillip_Lindsay
RB_Raheem_Mostert
RB_Reggie_Bonnafon
RB_Ronald_Jones
RB_Royce_Freeman
RB_Salvon_Ahmed
RB_Samaje_Perine
RB_T.J._Yeldon
RB_Travis_Homer
RB_Trenton_Cannon
RB_Troymaine_Pope
RB_Ty_Montgomery
RB_Tyler_Ervin
RB_Wayne_Gallman
RB_Zack_Moss
TE_Adam_Shaheen
TE_Adam_Trautman
TE_Austin_Hooper
TE_Cameron_Brate
TE_Cethan_Carter
TE_Chris_Manhertz
TE_Dallas_Goedert
TE_Dan_Arnold
TE_Darrell_Daniels
TE_Darren_Fells
TE_Darren_Waller
TE_David_Njoku
TE_Dawson_Knox
TE_Donald_Parham
TE_Drew_Sample
TE_Durham_Smythe
TE_Eric_Ebron
TE_Evan_Engram
TE_Foster_Moreau
TE_George_Kittle
TE_Gerald_Everett
TE_Greg_Olsen
TE_Harrison_Bryant
TE_Hunter_Henry
TE_Ian_Thomas
TE_Isaac_Nauta
TE_Jace_Sternberger
TE_Jacob_Hollister
TE_Jake_Butt
TE_James_O'Shaughnessy
TE_Jared_Cook
TE_Jason_Witten
TE_Jeremy_Sprinkle
TE_Jesse_James
TE_Johnny_Mundt
TE_Jordan_Akins
TE_Jordan_Reed
TE_Josh_Hill
TE_Kaden_Smith
TE_Lee_Smith
TE_Levine_Toilolo
TE_Logan_Thomas
TE_Marcedes_Lewis
TE_Maxx_Williams
TE_Mike_Gesicki
TE_Nick_Vannett
TE_Noah_Fant
TE_O.J._Howard
TE_Pharaoh_Brown
TE_Reggie_Gilliam
TE_Richard_Rodgers
TE_Rob_Gronkowski
TE_Robert_Tonyan
TE_Ross_Dwelley
TE_Stephen_Carlson
TE_T.J._Hockenson
TE_Tanner_Hudson
TE_Temarrick_Hemingway
TE_Tyler_Davis
TE_Tyler_Eifert
TE_Tyler_Higbee
TE_Will_Dissly
WR_A.J._Green
WR_Alex_Erickson
WR_Andre_Roberts
WR_Andy_Isabella
WR_Antonio_Brown
WR_Auden_Tate
WR_Austin_Mack
WR_Brandin_Cooks
WR_Brandon_Aiyuk
WR_Brandon_Zylstra
WR_Bryan_Edwards
WR_C.J._Board
WR_Cam_Sims
WR_Chase_Claypool
WR_Chris_Conley
WR_Chris_Godwin
WR_Christian_Kirk
WR_Cole_Beasley
WR_Collin_Johnson
WR_Cooper_Kupp
WR_Curtis_Samuel
WR_D.J._Chark
WR_D.J._Moore
WR_DK_Metcalf
WR_DaeSean_Hamilton
WR_Danny_Amendola
WR_Dante_Pettis
WR_Darius_Slayton
WR_Darrius_Shepherd
WR_Davante_Adams
WR_David_Moore
WR_DeAndre_Carter
WR_DeAndre_Hopkins
WR_DeVante_Parker
WR_Deonte_Harris
WR_Diontae_Johnson
WR_Diontae_Spencer
WR_Donovan_Peoples_Jones
WR_Emmanuel_Sanders
WR_Equanimeous_St._Brown
WR_Freddie_Swain
WR_Gabriel_Davis
WR_Golden_Tate
WR_Greg_Ward
WR_Henry_Ruggs_III
WR_Hunter_Renfrow
WR_Isaiah_McKenzie
WR_Isaiah_Wright
WR_J.J._Arcega_Whiteside
WR_Jakeem_Grant
WR_Jalen_Guyton
WR_Jalen_Reagor
WR_James_Washington
WR_Jarvis_Landry
WR_Jerry_Jeudy
WR_Joe_Reed
WR_John_Brown
WR_John_Hightower
WR_Josh_Reynolds
WR_JuJu_Smith_Schuster
WR_Justin_Watson
WR_K.J._Hamler
WR_K.J._Hill
WR_KeeSean_Johnson
WR_Keelan_Cole
WR_Keenan_Allen
WR_Keke_Coutee
WR_Kendrick_Bourne
WR_Kenny_Stills
WR_KhaDarel_Hodge
WR_Larry_Fitzgerald
WR_Mack_Hollins
WR_Malcolm_Perry
WR_Malik_Taylor
WR_Marquez_Callaway
WR_Marquez_Valdes_Scantling
WR_Marvin_Hall
WR_Marvin_Jones
WR_Michael_Thomas
WR_Mike_Evans
WR_Mike_Thomas
WR_Mike_Williams
WR_Nelson_Agholor
WR_Nsimba_Webster
WR_Pharoh_Cooper
WR_Quintez_Cephus
WR_Randall_Cobb
WR_Rashard_Higgins
WR_Richie_James
WR_River_Cracraft
WR_Robby_Anderson
WR_Robert_Woods
WR_Stefon_Diggs
WR_Sterling_Shepard
WR_Steven_Sims
WR_Tee_Higgins
WR_Tim_Patrick
WR_Travis_Fulgham
WR_Tre'Quan_Smith
WR_Trent_Sherfield
WR_Trent_Taylor
WR_Tyler_Boyd
WR_Tyler_Johnson
WR_Tyler_Lockett
WR_Tyrie_Cleveland
WR_Tyron_Johnson
WR_Van_Jefferson
WR_Will_Fuller
WR_Zay_Jones
End
